PARAMETER_FILE = even/even_complete_graph_new/par/random39.par
PROBLEM_FILE = even/even_complete_graph_new/mat/random39.tsp
Successes/Runs = 0/10
Cost.min = 510, Cost.avg = 510.00, Cost.max = 510
Gap.min = 0.0000%, Gap.avg = 0.0000%, Gap.max = 0.0000%
Trials.min = 1000, Trials.avg = 1000.0, Trials.max = 1000
Time.min = 0.00 sec., Time.avg = 0.01 sec., Time.max = 0.01 sec.
Time.total = 0.07 sec.
请按任意键继续. . . 
